c NeuroCodeBench 2.0 CNF formula with verdict Unsat
p cnf 15 68
-1 4 -15 3 0
1 -15 12 -7 9 -10 8 14 11 -13 0
1 15 -5 -4 6 -13 0
1 -15 -12 -8 -11 -14 0
1 15 -5 -4 -6 3 9 0
1 -15 12 -7 9 -10 -8 13 0
-1 -4 5 -8 -9 -13 10 14 0
1 15 5 -9 -7 13 6 0
1 -15 12 -7 9 10 -3 -5 13 -6 0
1 -15 -12 8 7 0
-1 4 15 7 0
1 15 -5 -4 6 13 -2 0
1 -15 12 -7 9 10 3 -2 0
1 15 -5 -4 -6 3 -9 -10 0
1 15 -5 4 -6 -14 0
-1 -4 5 -8 -9 13 -12 0
-1 -4 -5 -7 -9 -6 14 10 0
1 -15 12 -7 -9 -2 0
1 -15 12 -7 9 10 -3 -5 13 6 0
1 -15 12 -7 9 -10 8 14 -11 0
-1 -4 5 -8 -9 -13 10 -14 0
-1 -4 5 -8 -9 13 12 0
-1 4 15 -7 5 0
1 15 -5 4 6 -13 0
1 -15 12 -7 9 10 3 2 14 0
1 15 5 9 3 4 0
1 15 5 -9 7 -6 0
-1 4 -15 -3 0
1 15 -5 4 -6 14 -12 -3 0
-1 -4 5 8 -9 7 0
1 -15 12 -7 9 10 -3 5 0
1 15 5 -9 7 6 0
1 15 -5 4 -6 14 -12 3 0
-1 -4 5 -8 -9 -13 -10 0
1 -15 12 -7 9 -10 8 14 11 13 0
-1 -4 -5 -7 -9 -6 -14 0
1 -15 12 -7 9 -10 8 -14 0
1 -15 12 -7 9 10 3 2 -14 0
-1 -4 -5 7 0
1 15 -5 -4 -6 3 -9 10 0
-1 -4 5 8 -9 -7 -6 0
1 -15 -12 -8 11 -2 -3 0
1 -15 12 -7 9 -10 -8 -13 0
-1 -4 -5 -7 -9 6 0
-1 -4 5 8 -9 -7 6 0
1 -15 -12 -8 11 -2 3 0
-1 -4 5 8 9 -6 0
1 -15 -12 -8 11 2 0
1 15 -5 -4 -6 -3 9 0
-1 4 15 -7 -5 0
1 15 -5 4 -6 14 12 0
1 -15 12 7 0
-1 -4 5 8 9 6 0
1 -15 -12 8 -7 0
-1 -4 -5 -7 -9 -6 14 -10 0
1 15 5 9 3 -4 0
1 15 -5 -4 -6 -3 -9 11 0
1 15 -5 -4 6 13 2 0
1 15 -5 4 6 13 0
1 -15 -12 -8 -11 14 0
-1 -4 5 -8 9 0
1 -15 12 -7 -9 2 0
1 -15 12 -7 9 10 -3 -5 -13 0
1 15 5 9 -3 0
-1 -4 -5 -7 9 0
1 15 -5 -4 -6 -3 -9 -11 0
1 15 5 -9 -7 -13 0
1 15 5 -9 -7 13 -6 0
